13
0 3 9 2 1 9 6 5 9 8 3 10 4 
9 0 3 3 5 7 2 8 1 5 7 4 9 
1 2 0 5 9 9 1 7 2 8 2 8 5 
4 1 4 0 7 8 5 6 9 2 9 2 10 
1 2 1 7 0 4 3 1 1 8 8 1 8 
10 8 4 8 6 0 3 9 9 6 3 7 5 
7 9 10 5 10 1 0 7 10 1 9 2 8 
3 1 1 7 6 7 3 0 2 7 6 7 1 
9 7 5 2 7 8 10 10 0 5 5 3 4 
5 2 7 7 9 9 1 4 1 0 5 2 7 
9 4 1 2 2 9 6 7 1 1 0 1 4 
5 2 6 10 3 9 7 10 5 5 1 0 9 
2 5 6 7 2 8 3 5 8 1 6 6 0 
